program_setup_time=600;
sequence_setup_time=300;
max_colors_per_job=2;
min_cycles_per_job=2;
max_cycles_per_job=30;
max_jobs=25;
num_colors=3;
num_programs=2;
num_moulds=12;
num_demands=20;
num_lines=2;
available_moulds=[6,6,6,6,6,10,4,8,4,4,6,4];
slots_per_program=[9,7];
cycle_time_for_program=[3570,3060];
program_for_mould=[1,1,1,1,1,1,1,1,2,2,2,1];
line_for_mould=[1,1,1,1,1,1,1,1,2,2,2,1];
color_compatibility=array2d(colors, colors, [1,1,1,1,1,1,1,1,1]);
demand_qty=[6,13,14,21,2,14,4,16,17,3,2,2,1,1,1,4,3,3,2,4];
demand_duedate=[-636079,-636079,-636079,-636079,-636079,-636079,-636079,-636079,-636079,-518950,-518950,-245650,-245650,-89479,-50436,27649,27649,27649,27649,27649];
demand_color=[1,1,1,1,1,2,1,1,1,1,1,2,1,2,1,1,1,1,1,3];
demand_mould=[1,2,3,4,5,6,7,8,6,1,5,9,10,5,11,1,5,7,12,4];
reference_makespan = 66240;
reference_tardiness = 8146401;
reference_waste = 25;